num_offers = 20;
num_halls = 10;
start=[29,14,29,49,44,41,5,16,16,8,90,88,6,8,14,43,28,35,49,21];
end=[98,90,36,75,53,66,76,28,63,63,100,99,64,80,92,88,80,94,88,76];
price=[3574,3904,241,1631,105,954,2921,1230,1935,4621,860,207,2819,1518,6516,3902,2384,4545,780,3446];
requirement=[359,389,439,267,443,956,514,431,295,684,670,800,291,515,307,838,220,481,784,433];
capacity=[342,373,1000,858,824,947,760,869,393,966];
